(set-option :produce-models true)
(set-logic QF_UF)
(declare-fun p10() Bool)
(declare-fun p5() Bool)
(declare-fun p3() Bool)
(declare-fun p7() Bool)
(declare-fun p19() Bool)
(declare-fun p17() Bool)
(declare-fun p16() Bool)
(declare-fun p1() Bool)
(declare-fun p8() Bool)
(declare-fun p9() Bool)
(declare-fun p4() Bool)
(declare-fun p2() Bool)
(declare-fun p12() Bool)
(declare-fun p13() Bool)
(declare-fun p11() Bool)
(declare-fun p15() Bool)
(declare-fun p14() Bool)
(declare-fun p18() Bool)
(declare-fun p6() Bool)
(declare-fun p0() Bool)
(assert
(and (or (not p10) p5 p3) (or (not p7) p19 p17) (or p7 (not p16) p1) (or p8 p16 (not p9)) (or p4 p8 p8) (or p2 p3 p17) (or p3 p12 p17) (or (not p13) (not p19) (not p1)) (or p12 p11 p5) (or (not p5) p2 p10) (or p15 (not p17) p1) (or p3 p1 p15) (or p3 p17 (not p15)) (or p2 (not p14) (not p18)) (or (not p12) p3 (not p14)) (or (not p1) (not p4) (not p15)) (or (not p11) (not p10) (not p1)) (or (not p5) (not p18) p9) (or p15 (not p14) p9) (or (not p3) (not p7) (not p7)) (or (not p16) p7 (not p3)) (or (not p3) (not p15) p6) (or (not p8) (not p19) p1) (or p5 (not p11) (not p0)) (or p15 (not p10) (not p2)) (or p8 (not p3) (not p10)) (or (not p6) p18 p11) (or (not p14) (not p11) p19) (or (not p15) (not p8) p5) (or (not p5) p17 p19) (or (not p11) p5 p5) (or (not p13) (not p4) p3) (or (not p7) p5 p17) (or p3 (not p15) (not p1)) (or (not p13) p12 (not p9)) (or p5 p13 (not p14)) (or p7 p15 (not p15)) (or (not p6) p8 (not p13)) (or p11 (not p5) (not p3)) (or (not p3) p3 p14) (or p4 p8 (not p10)) (or p9 (not p0) p4) (or p18 (not p9) p14) (or (not p18) p16 (not p14)) (or p15 p13 p5) (or (not p11) (not p19) (not p2)) (or p11 (not p16) (not p14)) (or (not p6) p3 p18) (or (not p2) (not p3) p15) (or p5 (not p3) (not p9)) (or p10 p10 (not p7)) (or (not p13) (not p12) p7) (or (not p17) p19 (not p18)) (or (not p18) (not p15) (not p12)) (or p3 p10 p10) (or p0 p19 p16) (or p4 p15 (not p18)) (or (not p10) p8 p1) (or (not p5) p12 p12) (or (not p7) p16 (not p6)) (or p19 p14 (not p2)) (or (not p15) (not p18) p15) (or (not p0) (not p8) p0) (or p17 (not p4) p11) (or (not p7) (not p17) (not p6)) (or (not p19) (not p0) (not p16)) (or (not p11) (not p17) p14) (or p19 (not p7) p16) (or p0 p16 (not p12)) (or (not p7) (not p9) (not p0)) (or (not p19) (not p13) (not p15)) (or (not p15) (not p1) p4) (or (not p4) (not p15) (not p1)) (or (not p4) p0 p15) (or (not p12) p7 (not p4)) (or (not p0) p3 (not p17)) (or p2 p18 p8) (or p16 (not p7) (not p5)) (or (not p14) p8 p10) (or (not p5) (not p4) (not p17)) (or p18 (not p13) p10) (or p7 p8 (not p9)) (or p0 (not p7) p16) (or (not p19) p2 p17) (or (not p9) (not p13) (not p1)) (or (not p4) p16 p3) (or (not p7) p19 p11))
)
(check-sat)
(get-model)
